NAME : sim33.64568.tour
COMMENT : Length = 64568
COMMENT : Found by LKH [Keld Helsgaun] Fri Sep 14 14:35:30 2018
TYPE : TOUR
DIMENSION : 33
TOUR_SECTION
1
3
16
22
20
11
33
4
31
19
8
27
5
14
2
17
18
13
30
12
23
24
32
15
7
25
26
21
28
10
9
29
6
-1
EOF
